%mem=60GB
%nprocshared=16
#p B3LYP/6-31G* em=GD3BJ opt(maxstep=2,notrust,maxcyc=50,gdiis) scf=xqc

Template file

0 1
[GEOMETRY]

