%mem=60GB
%nprocshared=16
#p B3LYP/6-31G* em=GD3BJ opt(maxstep=5,notrust,maxcyc=40,gdiis) scf=xqc int=fine

Template file

0 1
[GEOMETRY]

