%mem=60GB
%nprocshared=16
#p B3LYP/6-31G* em=GD3BJ opt=maxcyc=50 int=fine

Template file

0 1
[GEOMETRY]

