! wB97M-V def2-TZVP def2/J RIJCOSX SCFConvForced NOTRAH noautostart miniprint nopop 
%maxcore 3000
%pal nprocs 16 end
* xyz 0 1 
[GEOMETRY]
*