%mem=60GB
%nprocshared=16
# b3lyp/6-31g(d) NMR scrf(SMD,solvent=chloroform)

Template file

0 1
[GEOMETRY]

