%mem=60GB
%nprocshared=16
# mPW1PW91/6-311+g(d,p) NMR scrf(SMD,solvent=chloroform)

Template file

0 1
[GEOMETRY]

