%mem=60GB
%nprocshared=16
#p cam-b3lyp/6-311G* TD(nstates=30) scrf(SMD,solvent=methanol)  int=fine

Template file

0 1
[GEOMETRY]

