%mem=60GB
%nprocshared=16
#p PBE1PBE/TZVP TD(nstates=30) scrf(SMD,solvent=methanol)  int=fine

Template file

0 1
[GEOMETRY]

